NAME: PointSet_Angle_5_1
TYPE: TSP
COMMENT: Points chosen discrete uniformly at random out of ${0, \ldots, 500}^2$.
DIMENSION: 5
EDGE_WEIGHT_TYPE: EUC_2D
NODE_COORD_SECTION
1 7 406
2 105 487
3 113 52
4 490 57
5 498 388
EOF
